certificates/rado_a12_c112_N29.cnf
c Rad2 upper bound instance: x1 + 12*x2 - x3 = 112, interval [1,29]
p cnf 29 138
1 9 10 0
-1 -9 -10 0
1 11 21 0
-1 -11 -21 0
2 10 0
-2 -10 0
2 11 22 0
-2 -11 -22 0
3 10 11 0
-3 -10 -11 0
3 11 23 0
-3 -11 -23 0
4 10 12 0
-4 -10 -12 0
4 11 24 0
-4 -11 -24 0
1 5 9 0
-1 -5 -9 0
5 10 13 0
-5 -10 -13 0
5 11 25 0
-5 -11 -25 0
2 6 9 0
-2 -6 -9 0
6 10 14 0
-6 -10 -14 0
6 11 26 0
-6 -11 -26 0
3 7 9 0
-3 -7 -9 0
7 10 15 0
-7 -10 -15 0
7 11 27 0
-7 -11 -27 0
4 8 9 0
-4 -8 -9 0
8 10 16 0
-8 -10 -16 0
8 11 28 0
-8 -11 -28 0
5 9 0
-5 -9 0
9 10 17 0
-9 -10 -17 0
9 11 29 0
-9 -11 -29 0
6 9 10 0
-6 -9 -10 0
10 18 0
-10 -18 0
7 9 11 0
-7 -9 -11 0
10 11 19 0
-10 -11 -19 0
8 9 12 0
-8 -9 -12 0
10 12 20 0
-10 -12 -20 0
9 13 0
-9 -13 0
10 13 21 0
-10 -13 -21 0
9 10 14 0
-9 -10 -14 0
10 14 22 0
-10 -14 -22 0
9 11 15 0
-9 -11 -15 0
10 15 23 0
-10 -15 -23 0
9 12 16 0
-9 -12 -16 0
10 16 24 0
-10 -16 -24 0
1 8 17 0
-1 -8 -17 0
9 13 17 0
-9 -13 -17 0
10 17 25 0
-10 -17 -25 0
2 8 18 0
-2 -8 -18 0
9 14 18 0
-9 -14 -18 0
10 18 26 0
-10 -18 -26 0
3 8 19 0
-3 -8 -19 0
9 15 19 0
-9 -15 -19 0
10 19 27 0
-10 -19 -27 0
4 8 20 0
-4 -8 -20 0
9 16 20 0
-9 -16 -20 0
10 20 28 0
-10 -20 -28 0
5 8 21 0
-5 -8 -21 0
9 17 21 0
-9 -17 -21 0
10 21 29 0
-10 -21 -29 0
6 8 22 0
-6 -8 -22 0
9 18 22 0
-9 -18 -22 0
7 8 23 0
-7 -8 -23 0
9 19 23 0
-9 -19 -23 0
8 24 0
-8 -24 0
9 20 24 0
-9 -20 -24 0
8 9 25 0
-8 -9 -25 0
9 21 25 0
-9 -21 -25 0
8 10 26 0
-8 -10 -26 0
9 22 26 0
-9 -22 -26 0
8 11 27 0
-8 -11 -27 0
9 23 27 0
-9 -23 -27 0
8 12 28 0
-8 -12 -28 0
9 24 28 0
-9 -24 -28 0
1 7 29 0
-1 -7 -29 0
8 13 29 0
-8 -13 -29 0
9 25 29 0
-9 -25 -29 0
