certificates/rado_a12_c112_N29.drat
-25 -29 0
d -9 -25 -29 0
-13 -29 0
-29 0
25 0
13 0
-9 0
5 0
11 0
0
